(set-option :auto-config false)
(set-option :produce-unsat-cores false)
(set-option :smt.mbqi.max_iterations 10000000)
(set-option :smt.relevancy 0)
(define-fun e2 ((c0 (_ BitVec 64)) (c1 (_ BitVec 64))) (_ BitVec 64) (_ bv1024 64))
(define-fun e3 ((c0 (_ BitVec 64)) (c1 (_ BitVec 64))) Bool (bvult c0 (e2 c0 c1)))
(define-fun e4 ((c0 (_ BitVec 64)) (c1 (_ BitVec 64))) Bool (bvult c1 (e2 c0 c1)))
(define-fun e5 ((c0 (_ BitVec 64)) (c1 (_ BitVec 64))) Bool (and (e3 c0 c1) (e4 c0 c1)))
(define-fun e6 ((c0 (_ BitVec 64)) (c1 (_ BitVec 64))) Bool (not (e5 c0 c1)))
(declare-fun c7 () Bool)
(define-fun e8 ((c0 (_ BitVec 64)) (c1 (_ BitVec 64))) Bool (not c7))
(declare-fun c9 () (_ BitVec 64))
(define-fun e10 ((c0 (_ BitVec 64)) (c1 (_ BitVec 64))) Bool (bvult c9 (e2 c0 c1)))
(define-fun e11 ((c0 (_ BitVec 64)) (c1 (_ BitVec 64))) (_ BitVec 64) (_ bv1 64))
(declare-fun c12 ((_ BitVec 64)) (_ BitVec 64))
(define-fun e13 ((c0 (_ BitVec 64)) (c1 (_ BitVec 64))) (_ BitVec 64) (c12 c9))
(define-fun e14 ((c0 (_ BitVec 64)) (c1 (_ BitVec 64))) Bool (= (e11 c0 c1) (e13 c0 c1)))
(define-fun e15 ((c0 (_ BitVec 64)) (c1 (_ BitVec 64))) Bool (and (e10 c0 c1) (e14 c0 c1)))
(declare-fun c16 () (_ BitVec 64))
(define-fun e17 ((c0 (_ BitVec 64)) (c1 (_ BitVec 64))) Bool (bvult c16 (e2 c0 c1)))
(define-fun e18 ((c0 (_ BitVec 64)) (c1 (_ BitVec 64))) (_ BitVec 64) (_ bv0 64))
(define-fun e19 ((c0 (_ BitVec 64)) (c1 (_ BitVec 64))) (_ BitVec 64) (c12 c16))
(define-fun e20 ((c0 (_ BitVec 64)) (c1 (_ BitVec 64))) Bool (= (e18 c0 c1) (e19 c0 c1)))
(define-fun e21 ((c0 (_ BitVec 64)) (c1 (_ BitVec 64))) Bool (and (e17 c0 c1) (e20 c0 c1)))
(declare-fun c22 ((_ BitVec 64) (_ BitVec 64)) (_ BitVec 64))
(define-fun e23 ((c0 (_ BitVec 64)) (c1 (_ BitVec 64))) (_ BitVec 64) (_ bv2 64))
(define-fun e24 ((c0 (_ BitVec 64)) (c1 (_ BitVec 64))) (_ BitVec 64) (c22 c9 (e23 c0 c1)))
(define-fun e25 ((c0 (_ BitVec 64)) (c1 (_ BitVec 64))) Bool (= (e18 c0 c1) (e24 c0 c1)))
(define-fun e26 ((c0 (_ BitVec 64)) (c1 (_ BitVec 64))) Bool (and (e8 c0 c1) (e15 c0 c1) (e21 c0 c1) (e25 c0 c1)))
(define-fun e27 ((c0 (_ BitVec 64)) (c1 (_ BitVec 64))) Bool (= c9 c0))
(define-fun e28 ((c0 (_ BitVec 64)) (c1 (_ BitVec 64))) Bool (= c16 c1))
(define-fun e29 ((c0 (_ BitVec 64)) (c1 (_ BitVec 64))) Bool (and (e27 c0 c1) (e28 c0 c1)))
(declare-fun c30 ((_ BitVec 64)) (_ BitVec 64))
(define-fun e31 ((c0 (_ BitVec 64)) (c1 (_ BitVec 64))) (_ BitVec 64) (c30 c9))
(declare-fun c32 ((_ BitVec 64) (_ BitVec 64)) (_ BitVec 64))
(define-fun e33 ((c0 (_ BitVec 64)) (c1 (_ BitVec 64))) (_ BitVec 64) (c32 c9 (e31 c0 c1)))
(define-fun e34 ((c0 (_ BitVec 64)) (c1 (_ BitVec 64))) Bool (= c1 (e33 c0 c1)))
(define-fun e35 ((c0 (_ BitVec 64)) (c1 (_ BitVec 64))) Bool (and (e27 c0 c1) (e34 c0 c1)))
(declare-fun c36 ((_ BitVec 64) (_ BitVec 64)) (_ BitVec 64))
(define-fun e37 ((c0 (_ BitVec 64)) (c1 (_ BitVec 64))) (_ BitVec 64) (c36 c9 c16))
(define-fun e38 ((c0 (_ BitVec 64)) (c1 (_ BitVec 64))) (_ BitVec 64) (c36 c0 c1))
(define-fun e39 ((c0 (_ BitVec 64)) (c1 (_ BitVec 64))) (_ BitVec 64) (ite (e35 c0 c1) (e37 c0 c1) (e38 c0 c1)))
(define-fun e40 ((c0 (_ BitVec 64)) (c1 (_ BitVec 64))) (_ BitVec 64) (ite (e29 c0 c1) (e31 c0 c1) (e39 c0 c1)))
(define-fun e41 ((c0 (_ BitVec 64)) (c1 (_ BitVec 64))) Bool (not (e15 c0 c1)))
(define-fun e42 ((c0 (_ BitVec 64)) (c1 (_ BitVec 64))) Bool (not (e17 c0 c1)))
(define-fun e43 ((c0 (_ BitVec 64)) (c1 (_ BitVec 64))) Bool (not (e21 c0 c1)))
(define-fun e44 ((c0 (_ BitVec 64)) (c1 (_ BitVec 64))) Bool (not (e25 c0 c1)))
(define-fun e45 ((c0 (_ BitVec 64)) (c1 (_ BitVec 64))) Bool (and (e21 c0 c1) (e44 c0 c1)))
(define-fun e46 ((c0 (_ BitVec 64)) (c1 (_ BitVec 64))) Bool (or (e43 c0 c1) (e45 c0 c1)))
(define-fun e47 ((c0 (_ BitVec 64)) (c1 (_ BitVec 64))) Bool (and (e17 c0 c1) (e46 c0 c1)))
(define-fun e48 ((c0 (_ BitVec 64)) (c1 (_ BitVec 64))) Bool (or (e42 c0 c1) (e47 c0 c1)))
(define-fun e49 ((c0 (_ BitVec 64)) (c1 (_ BitVec 64))) Bool (and (e15 c0 c1) (e48 c0 c1)))
(define-fun e50 ((c0 (_ BitVec 64)) (c1 (_ BitVec 64))) Bool (or (e41 c0 c1) (e49 c0 c1)))
(define-fun e51 ((c0 (_ BitVec 64)) (c1 (_ BitVec 64))) Bool (and (e8 c0 c1) (e50 c0 c1)))
(define-fun e52 ((c0 (_ BitVec 64)) (c1 (_ BitVec 64))) Bool (or c7 (e51 c0 c1)))
(define-fun e53 ((c0 (_ BitVec 64)) (c1 (_ BitVec 64))) (_ BitVec 64) (bvor (ite (e26 c0 c1) (e40 c0 c1) (_ bv0 64)) (ite (e52 c0 c1) (e38 c0 c1) (_ bv0 64))))
(define-fun e54 ((c0 (_ BitVec 64)) (c1 (_ BitVec 64))) Bool (bvult (e53 c0 c1) (e2 c0 c1)))
(define-fun e55 ((c0 (_ BitVec 64)) (c1 (_ BitVec 64))) Bool (or (e6 c0 c1) (e54 c0 c1)))
(define-fun e56 () Bool (forall ((c0 (_ BitVec 64)) (c1 (_ BitVec 64))) (e55 c0 c1)))
(define-fun e58 ((c0 (_ BitVec 64)) (c1 (_ BitVec 64)) (c57 (_ BitVec 64))) (_ BitVec 64) (_ bv1024 64))
(define-fun e59 ((c0 (_ BitVec 64)) (c1 (_ BitVec 64)) (c57 (_ BitVec 64))) Bool (bvult c0 (e58 c0 c1 c57)))
(define-fun e60 ((c0 (_ BitVec 64)) (c1 (_ BitVec 64)) (c57 (_ BitVec 64))) Bool (bvult c1 (e58 c0 c1 c57)))
(define-fun e61 ((c0 (_ BitVec 64)) (c1 (_ BitVec 64)) (c57 (_ BitVec 64))) Bool (bvult c57 (e58 c0 c1 c57)))
(define-fun e62 ((c0 (_ BitVec 64)) (c1 (_ BitVec 64)) (c57 (_ BitVec 64))) Bool (and (e59 c0 c1 c57) (e60 c0 c1 c57) (e61 c0 c1 c57)))
(define-fun e63 ((c0 (_ BitVec 64)) (c1 (_ BitVec 64)) (c57 (_ BitVec 64))) Bool (not (e62 c0 c1 c57)))
(define-fun e64 ((c0 (_ BitVec 64)) (c1 (_ BitVec 64)) (c57 (_ BitVec 64))) Bool (not c7))
(define-fun e65 ((c0 (_ BitVec 64)) (c1 (_ BitVec 64)) (c57 (_ BitVec 64))) Bool (bvult c9 (e58 c0 c1 c57)))
(define-fun e66 ((c0 (_ BitVec 64)) (c1 (_ BitVec 64)) (c57 (_ BitVec 64))) (_ BitVec 64) (_ bv1 64))
(define-fun e67 ((c0 (_ BitVec 64)) (c1 (_ BitVec 64)) (c57 (_ BitVec 64))) (_ BitVec 64) (c12 c9))
(define-fun e68 ((c0 (_ BitVec 64)) (c1 (_ BitVec 64)) (c57 (_ BitVec 64))) Bool (= (e66 c0 c1 c57) (e67 c0 c1 c57)))
(define-fun e69 ((c0 (_ BitVec 64)) (c1 (_ BitVec 64)) (c57 (_ BitVec 64))) Bool (and (e65 c0 c1 c57) (e68 c0 c1 c57)))
(define-fun e70 ((c0 (_ BitVec 64)) (c1 (_ BitVec 64)) (c57 (_ BitVec 64))) Bool (bvult c16 (e58 c0 c1 c57)))
(define-fun e71 ((c0 (_ BitVec 64)) (c1 (_ BitVec 64)) (c57 (_ BitVec 64))) (_ BitVec 64) (_ bv0 64))
(define-fun e72 ((c0 (_ BitVec 64)) (c1 (_ BitVec 64)) (c57 (_ BitVec 64))) (_ BitVec 64) (c12 c16))
(define-fun e73 ((c0 (_ BitVec 64)) (c1 (_ BitVec 64)) (c57 (_ BitVec 64))) Bool (= (e71 c0 c1 c57) (e72 c0 c1 c57)))
(define-fun e74 ((c0 (_ BitVec 64)) (c1 (_ BitVec 64)) (c57 (_ BitVec 64))) Bool (and (e70 c0 c1 c57) (e73 c0 c1 c57)))
(define-fun e75 ((c0 (_ BitVec 64)) (c1 (_ BitVec 64)) (c57 (_ BitVec 64))) (_ BitVec 64) (_ bv2 64))
(define-fun e76 ((c0 (_ BitVec 64)) (c1 (_ BitVec 64)) (c57 (_ BitVec 64))) (_ BitVec 64) (c22 c9 (e75 c0 c1 c57)))
(define-fun e77 ((c0 (_ BitVec 64)) (c1 (_ BitVec 64)) (c57 (_ BitVec 64))) Bool (= (e71 c0 c1 c57) (e76 c0 c1 c57)))
(define-fun e78 ((c0 (_ BitVec 64)) (c1 (_ BitVec 64)) (c57 (_ BitVec 64))) Bool (and (e64 c0 c1 c57) (e69 c0 c1 c57) (e74 c0 c1 c57) (e77 c0 c1 c57)))
(define-fun e79 ((c0 (_ BitVec 64)) (c1 (_ BitVec 64)) (c57 (_ BitVec 64))) Bool (= c9 c0))
(define-fun e80 ((c0 (_ BitVec 64)) (c1 (_ BitVec 64)) (c57 (_ BitVec 64))) (_ BitVec 64) (c30 c9))
(define-fun e81 ((c0 (_ BitVec 64)) (c1 (_ BitVec 64)) (c57 (_ BitVec 64))) Bool (= c57 (e80 c0 c1 c57)))
(define-fun e82 ((c0 (_ BitVec 64)) (c1 (_ BitVec 64)) (c57 (_ BitVec 64))) Bool (and (e79 c0 c1 c57) (e81 c0 c1 c57)))
(define-fun e83 ((c0 (_ BitVec 64)) (c1 (_ BitVec 64)) (c57 (_ BitVec 64))) (_ BitVec 64) (c36 c9 c16))
(define-fun e84 ((c0 (_ BitVec 64)) (c1 (_ BitVec 64)) (c57 (_ BitVec 64))) Bool (= c57 (e83 c0 c1 c57)))
(define-fun e85 ((c0 (_ BitVec 64)) (c1 (_ BitVec 64)) (c57 (_ BitVec 64))) Bool (and (e79 c0 c1 c57) (e84 c0 c1 c57)))
(define-fun e86 ((c0 (_ BitVec 64)) (c1 (_ BitVec 64)) (c57 (_ BitVec 64))) (_ BitVec 64) (c32 c9 (e80 c0 c1 c57)))
(define-fun e87 ((c0 (_ BitVec 64)) (c1 (_ BitVec 64)) (c57 (_ BitVec 64))) (_ BitVec 64) (c32 c0 c57))
(define-fun e88 ((c0 (_ BitVec 64)) (c1 (_ BitVec 64)) (c57 (_ BitVec 64))) (_ BitVec 64) (ite (e85 c0 c1 c57) (e86 c0 c1 c57) (e87 c0 c1 c57)))
(define-fun e89 ((c0 (_ BitVec 64)) (c1 (_ BitVec 64)) (c57 (_ BitVec 64))) (_ BitVec 64) (ite (e82 c0 c1 c57) c16 (e88 c0 c1 c57)))
(define-fun e90 ((c0 (_ BitVec 64)) (c1 (_ BitVec 64)) (c57 (_ BitVec 64))) Bool (not (e69 c0 c1 c57)))
(define-fun e91 ((c0 (_ BitVec 64)) (c1 (_ BitVec 64)) (c57 (_ BitVec 64))) Bool (not (e70 c0 c1 c57)))
(define-fun e92 ((c0 (_ BitVec 64)) (c1 (_ BitVec 64)) (c57 (_ BitVec 64))) Bool (not (e74 c0 c1 c57)))
(define-fun e93 ((c0 (_ BitVec 64)) (c1 (_ BitVec 64)) (c57 (_ BitVec 64))) Bool (not (e77 c0 c1 c57)))
(define-fun e94 ((c0 (_ BitVec 64)) (c1 (_ BitVec 64)) (c57 (_ BitVec 64))) Bool (and (e74 c0 c1 c57) (e93 c0 c1 c57)))
(define-fun e95 ((c0 (_ BitVec 64)) (c1 (_ BitVec 64)) (c57 (_ BitVec 64))) Bool (or (e92 c0 c1 c57) (e94 c0 c1 c57)))
(define-fun e96 ((c0 (_ BitVec 64)) (c1 (_ BitVec 64)) (c57 (_ BitVec 64))) Bool (and (e70 c0 c1 c57) (e95 c0 c1 c57)))
(define-fun e97 ((c0 (_ BitVec 64)) (c1 (_ BitVec 64)) (c57 (_ BitVec 64))) Bool (or (e91 c0 c1 c57) (e96 c0 c1 c57)))
(define-fun e98 ((c0 (_ BitVec 64)) (c1 (_ BitVec 64)) (c57 (_ BitVec 64))) Bool (and (e69 c0 c1 c57) (e97 c0 c1 c57)))
(define-fun e99 ((c0 (_ BitVec 64)) (c1 (_ BitVec 64)) (c57 (_ BitVec 64))) Bool (or (e90 c0 c1 c57) (e98 c0 c1 c57)))
(define-fun e100 ((c0 (_ BitVec 64)) (c1 (_ BitVec 64)) (c57 (_ BitVec 64))) Bool (and (e64 c0 c1 c57) (e99 c0 c1 c57)))
(define-fun e101 ((c0 (_ BitVec 64)) (c1 (_ BitVec 64)) (c57 (_ BitVec 64))) Bool (or c7 (e100 c0 c1 c57)))
(define-fun e102 ((c0 (_ BitVec 64)) (c1 (_ BitVec 64)) (c57 (_ BitVec 64))) (_ BitVec 64) (bvor (ite (e78 c0 c1 c57) (e89 c0 c1 c57) (_ bv0 64)) (ite (e101 c0 c1 c57) (e87 c0 c1 c57) (_ bv0 64))))
(define-fun e103 ((c0 (_ BitVec 64)) (c1 (_ BitVec 64)) (c57 (_ BitVec 64))) Bool (= c16 (e102 c0 c1 c57)))
(define-fun e104 ((c0 (_ BitVec 64)) (c1 (_ BitVec 64)) (c57 (_ BitVec 64))) Bool (and (e79 c0 c1 c57) (e103 c0 c1 c57)))
(define-fun e105 ((c0 (_ BitVec 64)) (c1 (_ BitVec 64)) (c57 (_ BitVec 64))) Bool (= (e86 c0 c1 c57) (e102 c0 c1 c57)))
(define-fun e106 ((c0 (_ BitVec 64)) (c1 (_ BitVec 64)) (c57 (_ BitVec 64))) Bool (and (e79 c0 c1 c57) (e105 c0 c1 c57)))
(define-fun e107 ((c0 (_ BitVec 64)) (c1 (_ BitVec 64)) (c57 (_ BitVec 64))) (_ BitVec 64) (c36 c0 (e102 c0 c1 c57)))
(define-fun e108 ((c0 (_ BitVec 64)) (c1 (_ BitVec 64)) (c57 (_ BitVec 64))) (_ BitVec 64) (ite (e106 c0 c1 c57) (e83 c0 c1 c57) (e107 c0 c1 c57)))
(define-fun e109 ((c0 (_ BitVec 64)) (c1 (_ BitVec 64)) (c57 (_ BitVec 64))) (_ BitVec 64) (ite (e104 c0 c1 c57) (e80 c0 c1 c57) (e108 c0 c1 c57)))
(define-fun e110 ((c0 (_ BitVec 64)) (c1 (_ BitVec 64)) (c57 (_ BitVec 64))) (_ BitVec 64) (bvor (ite (e78 c0 c1 c57) (e109 c0 c1 c57) (_ bv0 64)) (ite (e101 c0 c1 c57) (e107 c0 c1 c57) (_ bv0 64))))
(define-fun e111 ((c0 (_ BitVec 64)) (c1 (_ BitVec 64)) (c57 (_ BitVec 64))) Bool (= c57 (e110 c0 c1 c57)))
(define-fun e112 ((c0 (_ BitVec 64)) (c1 (_ BitVec 64)) (c57 (_ BitVec 64))) Bool (= c16 c1))
(define-fun e113 ((c0 (_ BitVec 64)) (c1 (_ BitVec 64)) (c57 (_ BitVec 64))) Bool (and (e79 c0 c1 c57) (e112 c0 c1 c57)))
(define-fun e114 ((c0 (_ BitVec 64)) (c1 (_ BitVec 64)) (c57 (_ BitVec 64))) Bool (= c1 (e86 c0 c1 c57)))
(define-fun e115 ((c0 (_ BitVec 64)) (c1 (_ BitVec 64)) (c57 (_ BitVec 64))) Bool (and (e79 c0 c1 c57) (e114 c0 c1 c57)))
(define-fun e116 ((c0 (_ BitVec 64)) (c1 (_ BitVec 64)) (c57 (_ BitVec 64))) (_ BitVec 64) (c36 c0 c1))
(define-fun e117 ((c0 (_ BitVec 64)) (c1 (_ BitVec 64)) (c57 (_ BitVec 64))) (_ BitVec 64) (ite (e115 c0 c1 c57) (e83 c0 c1 c57) (e116 c0 c1 c57)))
(define-fun e118 ((c0 (_ BitVec 64)) (c1 (_ BitVec 64)) (c57 (_ BitVec 64))) (_ BitVec 64) (ite (e113 c0 c1 c57) (e80 c0 c1 c57) (e117 c0 c1 c57)))
(define-fun e119 ((c0 (_ BitVec 64)) (c1 (_ BitVec 64)) (c57 (_ BitVec 64))) (_ BitVec 64) (bvor (ite (e78 c0 c1 c57) (e118 c0 c1 c57) (_ bv0 64)) (ite (e101 c0 c1 c57) (e116 c0 c1 c57) (_ bv0 64))))
(define-fun e120 ((c0 (_ BitVec 64)) (c1 (_ BitVec 64)) (c57 (_ BitVec 64))) Bool (= (e80 c0 c1 c57) (e119 c0 c1 c57)))
(define-fun e121 ((c0 (_ BitVec 64)) (c1 (_ BitVec 64)) (c57 (_ BitVec 64))) Bool (and (e79 c0 c1 c57) (e120 c0 c1 c57)))
(define-fun e122 ((c0 (_ BitVec 64)) (c1 (_ BitVec 64)) (c57 (_ BitVec 64))) Bool (= (e83 c0 c1 c57) (e119 c0 c1 c57)))
(define-fun e123 ((c0 (_ BitVec 64)) (c1 (_ BitVec 64)) (c57 (_ BitVec 64))) Bool (and (e79 c0 c1 c57) (e122 c0 c1 c57)))
(define-fun e124 ((c0 (_ BitVec 64)) (c1 (_ BitVec 64)) (c57 (_ BitVec 64))) (_ BitVec 64) (c32 c0 (e119 c0 c1 c57)))
(define-fun e125 ((c0 (_ BitVec 64)) (c1 (_ BitVec 64)) (c57 (_ BitVec 64))) (_ BitVec 64) (ite (e123 c0 c1 c57) (e86 c0 c1 c57) (e124 c0 c1 c57)))
(define-fun e126 ((c0 (_ BitVec 64)) (c1 (_ BitVec 64)) (c57 (_ BitVec 64))) (_ BitVec 64) (ite (e121 c0 c1 c57) c16 (e125 c0 c1 c57)))
(define-fun e127 ((c0 (_ BitVec 64)) (c1 (_ BitVec 64)) (c57 (_ BitVec 64))) (_ BitVec 64) (bvor (ite (e78 c0 c1 c57) (e126 c0 c1 c57) (_ bv0 64)) (ite (e101 c0 c1 c57) (e124 c0 c1 c57) (_ bv0 64))))
(define-fun e128 ((c0 (_ BitVec 64)) (c1 (_ BitVec 64)) (c57 (_ BitVec 64))) Bool (= c1 (e127 c0 c1 c57)))
(define-fun e129 ((c0 (_ BitVec 64)) (c1 (_ BitVec 64)) (c57 (_ BitVec 64))) Bool (and (e111 c0 c1 c57) (e128 c0 c1 c57)))
(define-fun e130 ((c0 (_ BitVec 64)) (c1 (_ BitVec 64)) (c57 (_ BitVec 64))) Bool (or (e63 c0 c1 c57) (e129 c0 c1 c57)))
(define-fun e131 () Bool (forall ((c0 (_ BitVec 64)) (c1 (_ BitVec 64)) (c57 (_ BitVec 64))) (e130 c0 c1 c57)))
(define-fun e132 ((c0 (_ BitVec 64))) (_ BitVec 64) (_ bv0 64))
(define-fun e133 ((c0 (_ BitVec 64))) Bool (not c7))
(define-fun e134 ((c0 (_ BitVec 64))) (_ BitVec 64) (_ bv1024 64))
(define-fun e135 ((c0 (_ BitVec 64))) Bool (bvult c9 (e134 c0)))
(define-fun e136 ((c0 (_ BitVec 64))) (_ BitVec 64) (_ bv1 64))
(define-fun e137 ((c0 (_ BitVec 64))) (_ BitVec 64) (c12 c9))
(define-fun e138 ((c0 (_ BitVec 64))) Bool (= (e136 c0) (e137 c0)))
(define-fun e139 ((c0 (_ BitVec 64))) Bool (and (e135 c0) (e138 c0)))
(define-fun e140 ((c0 (_ BitVec 64))) Bool (bvult c16 (e134 c0)))
(define-fun e141 ((c0 (_ BitVec 64))) (_ BitVec 64) (c12 c16))
(define-fun e142 ((c0 (_ BitVec 64))) Bool (= (e132 c0) (e141 c0)))
(define-fun e143 ((c0 (_ BitVec 64))) Bool (and (e140 c0) (e142 c0)))
(define-fun e144 ((c0 (_ BitVec 64))) (_ BitVec 64) (_ bv2 64))
(define-fun e145 ((c0 (_ BitVec 64))) (_ BitVec 64) (c22 c9 (e144 c0)))
(define-fun e146 ((c0 (_ BitVec 64))) Bool (= (e132 c0) (e145 c0)))
(define-fun e147 ((c0 (_ BitVec 64))) Bool (and (e133 c0) (e139 c0) (e143 c0) (e146 c0)))
(define-fun e148 ((c0 (_ BitVec 64))) Bool (= c9 c0))
(define-fun e149 ((c0 (_ BitVec 64))) Bool (= c16 c0))
(define-fun e150 ((c0 (_ BitVec 64))) Bool (and (e148 c0) (e149 c0)))
(define-fun e151 ((c0 (_ BitVec 64))) (_ BitVec 64) (c30 c9))
(define-fun e152 ((c0 (_ BitVec 64))) (_ BitVec 64) (c32 c9 (e151 c0)))
(define-fun e153 ((c0 (_ BitVec 64))) Bool (= c0 (e152 c0)))
(define-fun e154 ((c0 (_ BitVec 64))) Bool (and (e148 c0) (e153 c0)))
(define-fun e155 ((c0 (_ BitVec 64))) (_ BitVec 64) (c36 c9 c16))
(define-fun e156 ((c0 (_ BitVec 64))) (_ BitVec 64) (c36 c0 c0))
(define-fun e157 ((c0 (_ BitVec 64))) (_ BitVec 64) (ite (e154 c0) (e155 c0) (e156 c0)))
(define-fun e158 ((c0 (_ BitVec 64))) (_ BitVec 64) (ite (e150 c0) (e151 c0) (e157 c0)))
(define-fun e159 ((c0 (_ BitVec 64))) Bool (not (e139 c0)))
(define-fun e160 ((c0 (_ BitVec 64))) Bool (not (e140 c0)))
(define-fun e161 ((c0 (_ BitVec 64))) Bool (not (e143 c0)))
(define-fun e162 ((c0 (_ BitVec 64))) Bool (not (e146 c0)))
(define-fun e163 ((c0 (_ BitVec 64))) Bool (and (e143 c0) (e162 c0)))
(define-fun e164 ((c0 (_ BitVec 64))) Bool (or (e161 c0) (e163 c0)))
(define-fun e165 ((c0 (_ BitVec 64))) Bool (and (e140 c0) (e164 c0)))
(define-fun e166 ((c0 (_ BitVec 64))) Bool (or (e160 c0) (e165 c0)))
(define-fun e167 ((c0 (_ BitVec 64))) Bool (and (e139 c0) (e166 c0)))
(define-fun e168 ((c0 (_ BitVec 64))) Bool (or (e159 c0) (e167 c0)))
(define-fun e169 ((c0 (_ BitVec 64))) Bool (and (e133 c0) (e168 c0)))
(define-fun e170 ((c0 (_ BitVec 64))) Bool (or c7 (e169 c0)))
(define-fun e171 ((c0 (_ BitVec 64))) (_ BitVec 64) (bvor (ite (e147 c0) (e158 c0) (_ bv0 64)) (ite (e170 c0) (e156 c0) (_ bv0 64))))
(define-fun e172 ((c0 (_ BitVec 64))) Bool (= (e132 c0) (e171 c0)))
(define-fun e173 ((c0 (_ BitVec 64))) Bool (= (e132 c0) (e151 c0)))
(define-fun e174 ((c0 (_ BitVec 64))) Bool (and (e148 c0) (e173 c0)))
(define-fun e175 ((c0 (_ BitVec 64))) Bool (= (e132 c0) (e155 c0)))
(define-fun e176 ((c0 (_ BitVec 64))) Bool (and (e148 c0) (e175 c0)))
(define-fun e177 ((c0 (_ BitVec 64))) (_ BitVec 64) (c32 c0 (e132 c0)))
(define-fun e178 ((c0 (_ BitVec 64))) (_ BitVec 64) (ite (e176 c0) (e152 c0) (e177 c0)))
(define-fun e179 ((c0 (_ BitVec 64))) (_ BitVec 64) (ite (e174 c0) c16 (e178 c0)))
(define-fun e180 ((c0 (_ BitVec 64))) (_ BitVec 64) (bvor (ite (e147 c0) (e179 c0) (_ bv0 64)) (ite (e170 c0) (e177 c0) (_ bv0 64))))
(define-fun e181 ((c0 (_ BitVec 64))) Bool (= c0 (e180 c0)))
(define-fun e182 ((c0 (_ BitVec 64))) Bool (and (e172 c0) (e181 c0)))
(define-fun e183 ((c0 (_ BitVec 64))) Bool (bvult c0 (e134 c0)))
(declare-fun c184 ((_ BitVec 64)) (_ BitVec 64))
(define-fun e185 ((c0 (_ BitVec 64))) (_ BitVec 64) (c184 c0))
(define-fun e186 ((c0 (_ BitVec 64))) (_ BitVec 64) (ite (e149 c0) c9 (e185 c0)))
(define-fun e187 ((c0 (_ BitVec 64))) (_ BitVec 64) (bvor (ite (e147 c0) (e186 c0) (_ bv0 64)) (ite (e170 c0) (e185 c0) (_ bv0 64))))
(define-fun e188 ((c0 (_ BitVec 64))) Bool (= c0 (e187 c0)))
(define-fun e189 ((c0 (_ BitVec 64))) (_ BitVec 64) (c12 c0))
(define-fun e190 ((c0 (_ BitVec 64))) (_ BitVec 64) (ite (e149 c0) (e144 c0) (e189 c0)))
(define-fun e191 ((c0 (_ BitVec 64))) (_ BitVec 64) (bvor (ite (e147 c0) (e190 c0) (_ bv0 64)) (ite (e170 c0) (e189 c0) (_ bv0 64))))
(define-fun e192 ((c0 (_ BitVec 64))) Bool (= (e132 c0) (e191 c0)))
(define-fun e193 ((c0 (_ BitVec 64))) Bool (and (e183 c0) (e192 c0)))
(define-fun e194 ((c0 (_ BitVec 64))) Bool (not (e193 c0)))
(define-fun e195 ((c0 (_ BitVec 64))) Bool (and (e188 c0) (e194 c0)))
(define-fun e196 ((c0 (_ BitVec 64))) Bool (and (e183 c0) (e195 c0)))
(define-fun e197 ((c0 (_ BitVec 64))) Bool (not (e196 c0)))
(define-fun e198 ((c0 (_ BitVec 64))) Bool (or (e182 c0) (e197 c0)))
(define-fun e199 () Bool (forall ((c0 (_ BitVec 64))) (e198 c0)))
(define-fun e200 ((c0 (_ BitVec 64)) (c1 (_ BitVec 64))) (_ BitVec 64) (c184 c1))
(define-fun e201 ((c0 (_ BitVec 64)) (c1 (_ BitVec 64))) (_ BitVec 64) (ite (e28 c0 c1) c9 (e200 c0 c1)))
(define-fun e202 ((c0 (_ BitVec 64)) (c1 (_ BitVec 64))) (_ BitVec 64) (bvor (ite (e26 c0 c1) (e201 c0 c1) (_ bv0 64)) (ite (e52 c0 c1) (e200 c0 c1) (_ bv0 64))))
(define-fun e203 ((c0 (_ BitVec 64)) (c1 (_ BitVec 64))) Bool (= c0 (e202 c0 c1)))
(define-fun e204 ((c0 (_ BitVec 64)) (c1 (_ BitVec 64))) (_ BitVec 64) (c12 c1))
(define-fun e205 ((c0 (_ BitVec 64)) (c1 (_ BitVec 64))) (_ BitVec 64) (ite (e28 c0 c1) (e23 c0 c1) (e204 c0 c1)))
(define-fun e206 ((c0 (_ BitVec 64)) (c1 (_ BitVec 64))) (_ BitVec 64) (bvor (ite (e26 c0 c1) (e205 c0 c1) (_ bv0 64)) (ite (e52 c0 c1) (e204 c0 c1) (_ bv0 64))))
(define-fun e207 ((c0 (_ BitVec 64)) (c1 (_ BitVec 64))) Bool (= (e18 c0 c1) (e206 c0 c1)))
(define-fun e208 ((c0 (_ BitVec 64)) (c1 (_ BitVec 64))) Bool (and (e4 c0 c1) (e207 c0 c1)))
(define-fun e209 ((c0 (_ BitVec 64)) (c1 (_ BitVec 64))) Bool (not (e208 c0 c1)))
(define-fun e210 ((c0 (_ BitVec 64)) (c1 (_ BitVec 64))) Bool (and (e203 c0 c1) (e209 c0 c1)))
(define-fun e211 ((c0 (_ BitVec 64)) (c1 (_ BitVec 64))) (_ BitVec 64) (c30 c0))
(define-fun e212 ((c0 (_ BitVec 64)) (c1 (_ BitVec 64))) (_ BitVec 64) (bvadd (e11 c0 c1) (e211 c0 c1)))
(define-fun e213 ((c0 (_ BitVec 64)) (c1 (_ BitVec 64))) (_ BitVec 64) (ite (e27 c0 c1) (e212 c0 c1) (e211 c0 c1)))
(define-fun e214 ((c0 (_ BitVec 64)) (c1 (_ BitVec 64))) (_ BitVec 64) (bvor (ite (e26 c0 c1) (e213 c0 c1) (_ bv0 64)) (ite (e52 c0 c1) (e211 c0 c1) (_ bv0 64))))
(define-fun e215 ((c0 (_ BitVec 64)) (c1 (_ BitVec 64))) Bool (bvult (e53 c0 c1) (e214 c0 c1)))
(define-fun e216 ((c0 (_ BitVec 64)) (c1 (_ BitVec 64))) Bool (and (=> (e210 c0 c1) (e215 c0 c1)) (=> (e215 c0 c1) (e210 c0 c1))))
(define-fun e217 ((c0 (_ BitVec 64)) (c1 (_ BitVec 64))) Bool (or (e6 c0 c1) (e216 c0 c1)))
(define-fun e218 () Bool (forall ((c0 (_ BitVec 64)) (c1 (_ BitVec 64))) (e217 c0 c1)))
(define-fun e219 ((c0 (_ BitVec 64))) Bool (not (e183 c0)))
(define-fun e220 ((c0 (_ BitVec 64))) (_ BitVec 64) (c30 c0))
(define-fun e221 ((c0 (_ BitVec 64))) (_ BitVec 64) (bvadd (e136 c0) (e220 c0)))
(define-fun e222 ((c0 (_ BitVec 64))) (_ BitVec 64) (ite (e148 c0) (e221 c0) (e220 c0)))
(define-fun e223 ((c0 (_ BitVec 64))) (_ BitVec 64) (bvor (ite (e147 c0) (e222 c0) (_ bv0 64)) (ite (e170 c0) (e220 c0) (_ bv0 64))))
(define-fun e224 ((c0 (_ BitVec 64))) Bool (bvule (e223 c0) (e134 c0)))
(define-fun e225 ((c0 (_ BitVec 64))) Bool (or (e219 c0) (e224 c0)))
(define-fun e226 () Bool (forall ((c0 (_ BitVec 64))) (e225 c0)))
(define-fun e227 () Bool (and e56 e131 e199 e218 e226))
(define-fun e229 ((c228 (_ BitVec 64))) (_ BitVec 64) (c184 c228))
(define-fun e230 ((c228 (_ BitVec 64))) Bool (= c228 (e229 c228)))
(define-fun e231 ((c228 (_ BitVec 64))) (_ BitVec 64) (_ bv1024 64))
(define-fun e232 ((c228 (_ BitVec 64))) Bool (bvult c228 (e231 c228)))
(define-fun e233 ((c228 (_ BitVec 64))) (_ BitVec 64) (_ bv1 64))
(define-fun e234 ((c228 (_ BitVec 64))) (_ BitVec 64) (c12 c228))
(define-fun e235 ((c228 (_ BitVec 64))) Bool (= (e233 c228) (e234 c228)))
(define-fun e236 ((c228 (_ BitVec 64))) Bool (and (e232 c228) (e235 c228)))
(define-fun e237 ((c228 (_ BitVec 64))) Bool (not (e236 c228)))
(define-fun e238 ((c228 (_ BitVec 64))) Bool (or (e230 c228) (e237 c228)))
(define-fun e239 () Bool (forall ((c228 (_ BitVec 64))) (e238 c228)))
(define-fun e240 ((c228 (_ BitVec 64))) Bool (bvult (e229 c228) (e231 c228)))
(define-fun e241 ((c228 (_ BitVec 64))) (_ BitVec 64) (_ bv0 64))
(define-fun e242 ((c228 (_ BitVec 64))) Bool (= (e241 c228) (e234 c228)))
(define-fun e243 ((c228 (_ BitVec 64))) Bool (not (e242 c228)))
(define-fun e244 ((c228 (_ BitVec 64))) Bool (and (e232 c228) (e243 c228)))
(define-fun e245 ((c228 (_ BitVec 64))) Bool (not (e244 c228)))
(define-fun e246 ((c228 (_ BitVec 64))) Bool (or (e240 c228) (e245 c228)))
(define-fun e247 () Bool (forall ((c228 (_ BitVec 64))) (e246 c228)))
(declare-fun c248 () (_ BitVec 64))
(define-fun e249 () (_ BitVec 64) (_ bv1024 64))
(define-fun e250 () Bool (bvult c248 e249))
(define-fun e251 () (_ BitVec 64) (_ bv2 64))
(define-fun e252 () (_ BitVec 64) (c12 c248))
(define-fun e253 () Bool (= e251 e252))
(define-fun e254 () Bool (and e250 e253))
(define-fun e255 () Bool (not c7))
(define-fun e256 () Bool (or e254 e255))
(define-fun e257 ((c228 (_ BitVec 64))) (_ BitVec 64) (c30 c228))
(define-fun e258 ((c228 (_ BitVec 64))) Bool (= (e241 c228) (e257 c228)))
(define-fun e259 ((c228 (_ BitVec 64))) Bool (and (e232 c228) (e237 c228)))
(define-fun e260 ((c228 (_ BitVec 64))) Bool (not (e259 c228)))
(define-fun e261 ((c228 (_ BitVec 64))) Bool (or (e258 c228) (e260 c228)))
(define-fun e262 () Bool (forall ((c228 (_ BitVec 64))) (e261 c228)))
(define-fun e263 ((c228 (_ BitVec 64))) (_ BitVec 64) (c22 c228 (e233 c228)))
(define-fun e264 ((c228 (_ BitVec 64))) Bool (= (e257 c228) (e263 c228)))
(define-fun e265 ((c228 (_ BitVec 64))) Bool (or (e237 c228) (e264 c228)))
(define-fun e266 () Bool (forall ((c228 (_ BitVec 64))) (e265 c228)))
(define-fun e267 ((c0 (_ BitVec 64)) (c1 (_ BitVec 64))) Bool (bvult (e38 c0 c1) (e2 c0 c1)))
(define-fun e268 ((c0 (_ BitVec 64)) (c1 (_ BitVec 64))) Bool (or (e267 c0 c1) (e6 c0 c1)))
(define-fun e269 () Bool (forall ((c0 (_ BitVec 64)) (c1 (_ BitVec 64))) (e268 c0 c1)))
(define-fun e270 ((c0 (_ BitVec 64)) (c1 (_ BitVec 64)) (c57 (_ BitVec 64))) (_ BitVec 64) (c36 c0 (e87 c0 c1 c57)))
(define-fun e271 ((c0 (_ BitVec 64)) (c1 (_ BitVec 64)) (c57 (_ BitVec 64))) Bool (= c57 (e270 c0 c1 c57)))
(define-fun e272 ((c0 (_ BitVec 64)) (c1 (_ BitVec 64)) (c57 (_ BitVec 64))) (_ BitVec 64) (c32 c0 (e116 c0 c1 c57)))
(define-fun e273 ((c0 (_ BitVec 64)) (c1 (_ BitVec 64)) (c57 (_ BitVec 64))) Bool (= c1 (e272 c0 c1 c57)))
(define-fun e274 ((c0 (_ BitVec 64)) (c1 (_ BitVec 64)) (c57 (_ BitVec 64))) Bool (and (e271 c0 c1 c57) (e273 c0 c1 c57)))
(define-fun e275 ((c0 (_ BitVec 64)) (c1 (_ BitVec 64)) (c57 (_ BitVec 64))) Bool (or (e274 c0 c1 c57) (e63 c0 c1 c57)))
(define-fun e276 () Bool (forall ((c0 (_ BitVec 64)) (c1 (_ BitVec 64)) (c57 (_ BitVec 64))) (e275 c0 c1 c57)))
(define-fun e277 ((c0 (_ BitVec 64))) Bool (= (e132 c0) (e156 c0)))
(define-fun e278 ((c0 (_ BitVec 64))) Bool (= c0 (e177 c0)))
(define-fun e279 ((c0 (_ BitVec 64))) Bool (and (e277 c0) (e278 c0)))
(define-fun e280 ((c0 (_ BitVec 64))) Bool (= c0 (e185 c0)))
(define-fun e281 ((c0 (_ BitVec 64))) Bool (= (e132 c0) (e189 c0)))
(define-fun e282 ((c0 (_ BitVec 64))) Bool (and (e183 c0) (e281 c0)))
(define-fun e283 ((c0 (_ BitVec 64))) Bool (not (e282 c0)))
(define-fun e284 ((c0 (_ BitVec 64))) Bool (and (e280 c0) (e283 c0)))
(define-fun e285 ((c0 (_ BitVec 64))) Bool (and (e183 c0) (e284 c0)))
(define-fun e286 ((c0 (_ BitVec 64))) Bool (not (e285 c0)))
(define-fun e287 ((c0 (_ BitVec 64))) Bool (or (e279 c0) (e286 c0)))
(define-fun e288 () Bool (forall ((c0 (_ BitVec 64))) (e287 c0)))
(define-fun e289 ((c0 (_ BitVec 64)) (c1 (_ BitVec 64))) Bool (= c0 (e200 c0 c1)))
(define-fun e290 ((c0 (_ BitVec 64)) (c1 (_ BitVec 64))) Bool (= (e18 c0 c1) (e204 c0 c1)))
(define-fun e291 ((c0 (_ BitVec 64)) (c1 (_ BitVec 64))) Bool (and (e4 c0 c1) (e290 c0 c1)))
(define-fun e292 ((c0 (_ BitVec 64)) (c1 (_ BitVec 64))) Bool (not (e291 c0 c1)))
(define-fun e293 ((c0 (_ BitVec 64)) (c1 (_ BitVec 64))) Bool (and (e289 c0 c1) (e292 c0 c1)))
(define-fun e294 ((c0 (_ BitVec 64)) (c1 (_ BitVec 64))) Bool (bvult (e38 c0 c1) (e211 c0 c1)))
(define-fun e295 ((c0 (_ BitVec 64)) (c1 (_ BitVec 64))) Bool (and (=> (e293 c0 c1) (e294 c0 c1)) (=> (e294 c0 c1) (e293 c0 c1))))
(define-fun e296 ((c0 (_ BitVec 64)) (c1 (_ BitVec 64))) Bool (or (e6 c0 c1) (e295 c0 c1)))
(define-fun e297 () Bool (forall ((c0 (_ BitVec 64)) (c1 (_ BitVec 64))) (e296 c0 c1)))
(define-fun e298 ((c0 (_ BitVec 64))) Bool (bvule (e220 c0) (e134 c0)))
(define-fun e299 ((c0 (_ BitVec 64))) Bool (or (e298 c0) (e219 c0)))
(define-fun e300 () Bool (forall ((c0 (_ BitVec 64))) (e299 c0)))
(define-fun e301 () Bool (and e269 e276 e288 e297 e300))
(define-fun e302 () Bool (and e239 e247 e250 e256 e262 e266 e301))
(define-fun e303 () Bool (not e302))
(define-fun e304 () Bool (or e227 e303))
(define-fun e305 () Bool (not e304))
(assert e305)
(check-sat)
